sat
(= |goto_symex::&92;guard#1| true)
(= |goto_symex::&92;guard#2| false)
(= |memory_model::choice_rf_1_36_0_10_T_0| false)
(= |memory_model::choice_rf_1_36_2_21_T_1| false)
(= |memory_model::choice_rf_1_36_3_37_T_2| true)
(= |memory_model::choice_rf_2_20_0_10_T_3| true)
(= |memory_model::choice_rf_2_20_1_37_T_4| false)
(= |memory_model::choice_rf_2_20_3_37_T_5| false)
(= |memory_model::choice_rf_3_36_0_10_T_6| true)
(= |memory_model::choice_rf_3_36_1_37_T_7| false)
(= |memory_model::choice_rf_3_36_2_21_T_8| false)
(= |memory_model::choice_rf_0_46_0_8_T_9| false)
(= |memory_model::choice_rf_0_46_0_42_T_10| true)
(= |memory_model::choice_rf_0_51_0_8_T_11| false)
(= |memory_model::choice_rf_0_51_0_42_T_12| false)
(= |memory_model::choice_rf_0_51_0_47_T_13| true)
(= |memory_model::choice_rf_1_20_0_38_F_14| true)
(= |memory_model::choice_rf_1_20_2_0_F_15| false)
(= |memory_model::choice_rf_0_55_0_11_F_16| false)
(= |memory_model::choice_rf_0_55_1_35_F_17| true)
(= |memory_model::choice_rf_0_55_2_19_F_18| false)
(= |memory_model::choice_rf_0_55_3_35_F_19| false)
(= |memory_model::choice_rf_1_34_0_11_F_20| false)
(= |memory_model::choice_rf_1_34_2_19_F_21| true)
(= |memory_model::choice_rf_1_34_3_35_F_22| false)
(= |memory_model::choice_rf_2_18_0_11_F_23| false)
(= |memory_model::choice_rf_2_18_1_35_F_24| false)
(= |memory_model::choice_rf_2_18_3_35_F_25| true)
(= |memory_model::choice_rf_3_34_0_11_F_26| true)
(= |memory_model::choice_rf_3_34_1_35_F_27| false)
(= |memory_model::choice_rf_3_34_2_19_F_28| false)
(= |memory_model::choice_rf_0_75_0_12_F_29| false)
(= |memory_model::choice_rf_0_75_1_21_F_30| true)
(= |memory_model::choice_rf_1_19_0_12_F_31| false)
(= |memory_model::choice_rf_0_72_0_13_F_32| false)
(= |memory_model::choice_rf_0_72_2_3_F_33| true)
(= |memory_model::choice_rf_0_71_0_14_F_34| false)
(= |memory_model::choice_rf_0_71_2_5_F_35| true)
(= |memory_model::choice_rf_0_74_0_15_F_36| false)
(= |memory_model::choice_rf_0_74_3_2_F_37| true)
(= |memory_model::choice_rf_0_73_0_16_F_38| false)
(= |memory_model::choice_rf_0_73_3_10_F_39| true)
(= |memory_model::choice_rf_0_58_0_17_F_40| false)
(= |memory_model::choice_rf_0_58_1_33_F_41| true)
(= |memory_model::choice_rf_0_58_2_17_F_42| false)
(= |memory_model::choice_rf_0_58_3_16_F_43| false)
(= |memory_model::choice_rf_0_58_3_33_F_44| false)
(= |memory_model::choice_rf_1_22_0_17_F_45| false)
(= |memory_model::choice_rf_1_22_0_69_F_46| false)
(= |memory_model::choice_rf_1_22_2_17_F_47| true)
(= |memory_model::choice_rf_1_22_3_16_F_48| false)
(= |memory_model::choice_rf_1_22_3_33_F_49| false)
(= |memory_model::choice_rf_2_6_0_17_F_50| false)
(= |memory_model::choice_rf_2_6_0_69_F_51| false)
(= |memory_model::choice_rf_2_6_1_33_F_52| false)
(= |memory_model::choice_rf_2_6_3_16_F_53| false)
(= |memory_model::choice_rf_2_6_3_33_F_54| true)
(= |memory_model::choice_rf_3_9_0_17_F_55| true)
(= |memory_model::choice_rf_3_9_0_69_F_56| false)
(= |memory_model::choice_rf_3_9_1_33_F_57| false)
(= |memory_model::choice_rf_3_9_2_17_F_58| false)
(= |memory_model::choice_rf_3_22_0_17_F_59| false)
(= |memory_model::choice_rf_3_22_0_69_F_60| false)
(= |memory_model::choice_rf_3_22_1_33_F_61| false)
(= |memory_model::choice_rf_3_22_2_17_F_62| false)
(= |memory_model::choice_rf_3_22_3_16_F_63| true)
(= |memory_model::choice_rf_0_63_0_20_F_64| true)
(= |memory_model::choice_rf_1_6_0_20_F_65| true)
(= |memory_model::choice_rf_1_6_0_66_F_66| false)
(= |memory_model::choice_rf_1_3_0_21_F_67| true)
(= |memory_model::choice_rf_1_27_0_21_F_68| false)
(= |memory_model::choice_rf_1_27_1_10_F_69| true)
(= |memory_model::choice_rf_1_2_0_22_F_70| true)
(= |memory_model::choice_rf_1_2_2_14_F_71| false)
(= |memory_model::choice_rf_2_11_0_22_F_72| true)
(= |memory_model::choice_rf_1_4_0_23_F_73| true)
(= |memory_model::choice_rf_1_4_3_11_F_74| false)
(= |memory_model::choice_rf_1_4_3_29_F_75| false)
(= |memory_model::choice_rf_3_6_0_23_F_76| true)
(= |memory_model::choice_rf_3_26_0_23_F_77| false)
(= |memory_model::choice_rf_3_26_3_11_F_78| true)
(= |memory_model::choice_rf_0_62_0_24_F_79| false)
(= |memory_model::choice_rf_0_62_1_13_F_80| true)
(= |memory_model::choice_rf_1_5_0_24_F_81| false)
(= |memory_model::choice_rf_1_5_0_65_F_82| false)
(= |memory_model::choice_rf_1_1_0_25_F_83| false)
(= |memory_model::choice_rf_1_24_0_25_F_84| false)
(= |memory_model::choice_rf_1_24_1_12_F_85| true)
(= |memory_model::choice_rf_1_0_0_26_F_86| false)
(= |memory_model::choice_rf_1_0_2_13_F_87| false)
(= |memory_model::choice_rf_2_8_0_26_F_88| false)
(= |memory_model::choice_rf_2_8_1_11_F_89| true)
(= |memory_model::choice_rf_1_7_0_27_F_90| false)
(= |memory_model::choice_rf_1_7_3_12_F_91| false)
(= |memory_model::choice_rf_1_7_3_31_F_92| false)
(= |memory_model::choice_rf_3_7_0_27_F_93| false)
(= |memory_model::choice_rf_3_7_1_14_F_94| true)
(= |memory_model::choice_rf_3_27_0_27_F_95| false)
(= |memory_model::choice_rf_3_27_1_14_F_96| false)
(= |memory_model::choice_rf_3_27_3_12_F_97| true)
(= |memory_model::choice_rf_0_61_0_30_F_98| false)
(= |memory_model::choice_rf_0_61_1_17_F_99| false)
(= |memory_model::choice_rf_0_61_3_15_F_100| true)
(= |memory_model::choice_rf_1_9_0_30_F_101| true)
(= |memory_model::choice_rf_1_9_3_15_F_102| false)
(= |memory_model::choice_rf_1_26_0_30_F_103| false)
(= |memory_model::choice_rf_1_26_1_17_F_104| false)
(= |memory_model::choice_rf_1_26_3_15_F_105| true)
(= |memory_model::choice_rf_2_10_0_30_F_106| false)
(= |memory_model::choice_rf_2_10_1_17_F_107| false)
(= |memory_model::choice_rf_2_10_3_15_F_108| true)
(= |memory_model::choice_rf_3_4_0_30_F_109| false)
(= |memory_model::choice_rf_3_4_1_17_F_110| true)
(= |memory_model::choice_rf_3_25_0_30_F_111| false)
(= |memory_model::choice_rf_3_25_1_17_F_112| false)
(= |memory_model::choice_rf_3_25_3_15_F_113| true)
(= |memory_model::choice_rf_0_64_0_31_F_114| false)
(= |memory_model::choice_rf_0_64_1_15_F_115| false)
(= |memory_model::choice_rf_0_64_1_32_F_116| true)
(= |memory_model::choice_rf_0_64_2_16_F_117| false)
(= |memory_model::choice_rf_0_64_3_13_F_118| false)
(= |memory_model::choice_rf_0_64_3_32_F_119| false)
(= |memory_model::choice_rf_1_8_0_31_F_120| true)
(= |memory_model::choice_rf_1_8_0_68_F_121| false)
(= |memory_model::choice_rf_1_8_2_16_F_122| false)
(= |memory_model::choice_rf_1_8_3_13_F_123| false)
(= |memory_model::choice_rf_1_8_3_32_F_124| false)
(= |memory_model::choice_rf_1_28_0_31_F_125| false)
(= |memory_model::choice_rf_1_28_0_68_F_126| false)
(= |memory_model::choice_rf_1_28_1_15_F_127| false)
(= |memory_model::choice_rf_1_28_2_16_F_128| true)
(= |memory_model::choice_rf_1_28_3_13_F_129| false)
(= |memory_model::choice_rf_1_28_3_32_F_130| false)
(= |memory_model::choice_rf_2_12_0_31_F_131| false)
(= |memory_model::choice_rf_2_12_0_68_F_132| false)
(= |memory_model::choice_rf_2_12_1_15_F_133| false)
(= |memory_model::choice_rf_2_12_1_32_F_134| false)
(= |memory_model::choice_rf_2_12_3_13_F_135| false)
(= |memory_model::choice_rf_2_12_3_32_F_136| true)
(= |memory_model::choice_rf_3_8_0_31_F_137| false)
(= |memory_model::choice_rf_3_8_0_68_F_138| false)
(= |memory_model::choice_rf_3_8_1_15_F_139| true)
(= |memory_model::choice_rf_3_8_1_32_F_140| false)
(= |memory_model::choice_rf_3_8_2_16_F_141| false)
(= |memory_model::choice_rf_3_28_0_31_F_142| false)
(= |memory_model::choice_rf_3_28_0_68_F_143| false)
(= |memory_model::choice_rf_3_28_1_15_F_144| false)
(= |memory_model::choice_rf_3_28_1_32_F_145| false)
(= |memory_model::choice_rf_3_28_2_16_F_146| false)
(= |memory_model::choice_rf_3_28_3_13_F_147| true)
(= |memory_model::choice_rf_0_59_0_32_F_148| false)
(= |memory_model::choice_rf_0_59_1_18_F_149| false)
(= |memory_model::choice_rf_0_59_3_14_F_150| true)
(= |memory_model::choice_rf_1_23_0_32_F_151| false)
(= |memory_model::choice_rf_1_23_1_18_F_152| false)
(= |memory_model::choice_rf_1_23_3_14_F_153| true)
(= |memory_model::choice_rf_2_7_0_32_F_154| false)
(= |memory_model::choice_rf_2_7_1_18_F_155| false)
(= |memory_model::choice_rf_2_7_3_14_F_156| true)
(= |memory_model::choice_rf_3_3_0_32_F_157| false)
(= |memory_model::choice_rf_3_3_1_18_F_158| true)
(= |memory_model::choice_rf_3_23_0_32_F_159| false)
(= |memory_model::choice_rf_3_23_1_18_F_160| false)
(= |memory_model::choice_rf_3_23_3_14_F_161| true)
(= |memory_model::choice_rf_0_60_0_33_F_162| false)
(= |memory_model::choice_rf_0_60_1_16_F_163| false)
(= |memory_model::choice_rf_0_60_1_31_F_164| true)
(= |memory_model::choice_rf_0_60_2_15_F_165| false)
(= |memory_model::choice_rf_0_60_3_20_F_166| false)
(= |memory_model::choice_rf_0_60_3_30_F_167| false)
(= |memory_model::choice_rf_1_25_0_33_F_168| false)
(= |memory_model::choice_rf_1_25_0_67_F_169| false)
(= |memory_model::choice_rf_1_25_1_16_F_170| false)
(= |memory_model::choice_rf_1_25_2_15_F_171| true)
(= |memory_model::choice_rf_1_25_3_20_F_172| false)
(= |memory_model::choice_rf_1_25_3_30_F_173| false)
(= |memory_model::choice_rf_2_9_0_33_F_174| false)
(= |memory_model::choice_rf_2_9_0_67_F_175| false)
(= |memory_model::choice_rf_2_9_1_16_F_176| false)
(= |memory_model::choice_rf_2_9_1_31_F_177| false)
(= |memory_model::choice_rf_2_9_3_20_F_178| false)
(= |memory_model::choice_rf_2_9_3_30_F_179| true)
(= |memory_model::choice_rf_3_5_0_33_F_180| false)
(= |memory_model::choice_rf_3_5_0_67_F_181| false)
(= |memory_model::choice_rf_3_5_1_16_F_182| true)
(= |memory_model::choice_rf_3_5_1_31_F_183| false)
(= |memory_model::choice_rf_3_5_2_15_F_184| false)
(= |memory_model::choice_rf_3_24_0_33_F_185| false)
(= |memory_model::choice_rf_3_24_0_67_F_186| false)
(= |memory_model::choice_rf_3_24_1_16_F_187| false)
(= |memory_model::choice_rf_3_24_1_31_F_188| false)
(= |memory_model::choice_rf_3_24_2_15_F_189| false)
(= |memory_model::choice_rf_3_24_3_20_F_190| true)
(= |memory_model::choice_rf_0_57_0_34_F_191| false)
(= |memory_model::choice_rf_0_57_0_56_F_192| true)
(= |memory_model::choice_rf_0_70_0_35_F_193| false)
(= |memory_model::choice_rf_0_77_0_35_F_194| false)
(= |memory_model::choice_rf_0_77_0_76_F_195| true)
(= |memory_model::choice_rf_0_78_0_35_F_196| false)
(= |memory_model::choice_rf_0_78_0_76_F_197| true)
(= |memory_model::choice_rf_2_2_0_39_F_198| false)
(= |memory_model::choice_rf_2_2_2_1_F_199| true)
(= |memory_model::choice_rf_2_4_0_40_F_200| true)
(= |memory_model::choice_rf_2_4_3_0_F_201| false)
(= |memory_model::choice_rf_3_1_0_40_F_202| false)
(= |memory_model::choice_rf_3_1_3_0_F_203| true)
(= |memory_model::choice_ws-ext_0_10_1_37_T_204| true)
(= |memory_model::choice_ws-ext_0_10_2_21_T_205| true)
(= |memory_model::choice_ws-ext_0_10_3_37_T_206| true)
(= |memory_model::choice_ws-ext_1_37_2_21_T_207| true)
(= |memory_model::choice_ws-ext_1_37_3_37_T_208| false)
(= |memory_model::choice_ws-ext_2_21_3_37_T_209| false)
(= |memory_model::choice_ws-ext_0_38_2_0_F_210| true)
(= |memory_model::choice_ws-ext_0_11_1_35_F_211| true)
(= |memory_model::choice_ws-ext_0_11_2_19_F_212| true)
(= |memory_model::choice_ws-ext_0_11_3_35_F_213| true)
(= |memory_model::choice_ws-ext_1_35_2_19_F_214| false)
(= |memory_model::choice_ws-ext_1_35_3_35_F_215| false)
(= |memory_model::choice_ws-ext_2_19_3_35_F_216| false)
(= |memory_model::choice_ws-ext_0_12_1_21_F_217| true)
(= |memory_model::choice_ws-ext_0_13_2_3_F_218| true)
(= |memory_model::choice_ws-ext_0_14_2_5_F_219| true)
(= |memory_model::choice_ws-ext_0_15_3_2_F_220| true)
(= |memory_model::choice_ws-ext_0_16_3_10_F_221| true)
(= |memory_model::choice_ws-ext_0_17_1_33_F_222| true)
(= |memory_model::choice_ws-ext_0_17_2_17_F_223| true)
(= |memory_model::choice_ws-ext_0_17_3_16_F_224| true)
(= |memory_model::choice_ws-ext_0_17_3_33_F_225| true)
(= |memory_model::choice_ws-ext_0_69_1_33_F_226| false)
(= |memory_model::choice_ws-ext_0_69_2_17_F_227| false)
(= |memory_model::choice_ws-ext_0_69_3_16_F_228| false)
(= |memory_model::choice_ws-ext_0_69_3_33_F_229| false)
(= |memory_model::choice_ws-ext_1_33_2_17_F_230| false)
(= |memory_model::choice_ws-ext_1_33_3_16_F_231| false)
(= |memory_model::choice_ws-ext_1_33_3_33_F_232| false)
(= |memory_model::choice_ws-ext_2_17_3_16_F_233| false)
(= |memory_model::choice_ws-ext_2_17_3_33_F_234| false)
(= |memory_model::choice_ws-ext_0_18_3_18_F_235| true)
(= |memory_model::choice_ws-ext_0_19_3_17_F_236| true)
(= |memory_model::choice_ws-ext_0_21_1_10_F_237| true)
(= |memory_model::choice_ws-ext_0_21_1_30_F_238| true)
(= |memory_model::choice_ws-ext_0_22_2_14_F_239| true)
(= |memory_model::choice_ws-ext_0_23_3_11_F_240| true)
(= |memory_model::choice_ws-ext_0_23_3_29_F_241| true)
(= |memory_model::choice_ws-ext_0_24_1_13_F_242| true)
(= |memory_model::choice_ws-ext_0_65_1_13_F_243| false)
(= |memory_model::choice_ws-ext_0_25_1_12_F_244| true)
(= |memory_model::choice_ws-ext_0_25_1_29_F_245| true)
(= |memory_model::choice_ws-ext_0_26_1_11_F_246| true)
(= |memory_model::choice_ws-ext_0_26_2_13_F_247| true)
(= |memory_model::choice_ws-ext_1_11_2_13_F_248| true)
(= |memory_model::choice_ws-ext_0_27_1_14_F_249| true)
(= |memory_model::choice_ws-ext_0_27_3_12_F_250| true)
(= |memory_model::choice_ws-ext_0_27_3_31_F_251| true)
(= |memory_model::choice_ws-ext_1_14_3_12_F_252| true)
(= |memory_model::choice_ws-ext_1_14_3_31_F_253| true)
(= |memory_model::choice_ws-ext_0_30_1_17_F_254| true)
(= |memory_model::choice_ws-ext_0_30_3_15_F_255| true)
(= |memory_model::choice_ws-ext_1_17_3_15_F_256| true)
(= |memory_model::choice_ws-ext_0_31_1_15_F_257| true)
(= |memory_model::choice_ws-ext_0_31_1_32_F_258| true)
(= |memory_model::choice_ws-ext_0_31_2_16_F_259| true)
(= |memory_model::choice_ws-ext_0_31_3_13_F_260| true)
(= |memory_model::choice_ws-ext_0_31_3_32_F_261| true)
(= |memory_model::choice_ws-ext_0_68_1_15_F_262| false)
(= |memory_model::choice_ws-ext_0_68_1_32_F_263| false)
(= |memory_model::choice_ws-ext_0_68_2_16_F_264| false)
(= |memory_model::choice_ws-ext_0_68_3_13_F_265| false)
(= |memory_model::choice_ws-ext_0_68_3_32_F_266| false)
(= |memory_model::choice_ws-ext_1_15_2_16_F_267| true)
(= |memory_model::choice_ws-ext_1_15_3_13_F_268| true)
(= |memory_model::choice_ws-ext_1_15_3_32_F_269| true)
(= |memory_model::choice_ws-ext_1_32_2_16_F_270| false)
(= |memory_model::choice_ws-ext_1_32_3_13_F_271| false)
(= |memory_model::choice_ws-ext_1_32_3_32_F_272| false)
(= |memory_model::choice_ws-ext_2_16_3_13_F_273| false)
(= |memory_model::choice_ws-ext_2_16_3_32_F_274| false)
(= |memory_model::choice_ws-ext_0_32_1_18_F_275| true)
(= |memory_model::choice_ws-ext_0_32_3_14_F_276| true)
(= |memory_model::choice_ws-ext_1_18_3_14_F_277| true)
(= |memory_model::choice_ws-ext_0_33_1_16_F_278| true)
(= |memory_model::choice_ws-ext_0_33_1_31_F_279| true)
(= |memory_model::choice_ws-ext_0_33_2_15_F_280| true)
(= |memory_model::choice_ws-ext_0_33_3_20_F_281| true)
(= |memory_model::choice_ws-ext_0_33_3_30_F_282| true)
(= |memory_model::choice_ws-ext_0_67_1_16_F_283| false)
(= |memory_model::choice_ws-ext_0_67_1_31_F_284| false)
(= |memory_model::choice_ws-ext_0_67_2_15_F_285| false)
(= |memory_model::choice_ws-ext_0_67_3_20_F_286| false)
(= |memory_model::choice_ws-ext_0_67_3_30_F_287| false)
(= |memory_model::choice_ws-ext_1_16_2_15_F_288| true)
(= |memory_model::choice_ws-ext_1_16_3_20_F_289| true)
(= |memory_model::choice_ws-ext_1_16_3_30_F_290| true)
(= |memory_model::choice_ws-ext_1_31_2_15_F_291| false)
(= |memory_model::choice_ws-ext_1_31_3_20_F_292| false)
(= |memory_model::choice_ws-ext_1_31_3_30_F_293| false)
(= |memory_model::choice_ws-ext_2_15_3_20_F_294| false)
(= |memory_model::choice_ws-ext_2_15_3_30_F_295| false)
(= |memory_model::choice_ws-ext_0_39_2_1_F_296| true)
(= |memory_model::choice_ws-ext_0_40_3_0_F_297| true)
(= |memory_model::choice_ws-ext_0_36_3_21_F_298| true)
(= |memory_model::choice_ws-ext_0_37_3_19_F_299| true)
(= |main$tmp_guard0#3| #b00000001)
(= |__CPROVER_next_thread_id#3| #b00000000000000000000000000000001)
(= |__CPROVER_next_thread_id#6| #b00000000000000000000000000000010)
(= |__unbuffered_cnt#2| #b00000000000000000000000000000011)
(= |a$w_buff0_used#2| #b00000000)
(= |a$r_buff0_thd0#2| #b00000000)
(= |a$w_buff0#2| #b00000000000000000000000000000001)
(= |a$w_buff1_used#2| #b00000000)
(= |a$r_buff1_thd0#2| #b00000000)
(= |a$w_buff1#2| #b00000000000000000000000000000000)
(= |a#2| #b00000000000000000000000000000001)
(= |a#4| #b00000000000000000000000000000001)
(= |a$w_buff0_used#6| #b00000000)
(= |a$w_buff1_used#6| #b00000000)
(= |a$r_buff0_thd0#8| #b00000000)
(= |a$r_buff1_thd0#7| #b00000000)
(= |__unbuffered_p0_EAX#2| #b00000000000000000000000000000000)
(= |__unbuffered_p1_EAX#2| #b00000000000000000000000000000001)
(= |__unbuffered_p1_EBX#2| #b00000000000000000000000000000000)
(= |__unbuffered_p2_EAX#2| #b00000000000000000000000000000001)
(= |__unbuffered_p2_EBX#2| #b00000000000000000000000000000000)
(= |main$tmp_guard1#2| #b00000000)
(= |main$tmp_guard1#3| #b00000001)
(= |main$tmp_guard1#6| #b00000000)
(= |pthread_create::1::this_thread_id!1@0#0| #b00000000000000000000000000000000)
(= |a$w_buff0#4| #b00000000000000000000000000000000)
(= |a$w_buff0_used#11| #b00000000)
(= |a$r_buff0_thd0#11| #b00000000)
(= |a$r_buff1_thd0#9| #b00000000)
(= |a$r_buff1_thd0#10| #b10000000)
(= |a$r_buff0_thd1#2| #b00000000)
(= |a$r_buff1_thd1#2| #b00000000)
(= |a$r_buff1_thd1#3| #b10000000)
(= |a$r_buff0_thd2#2| #b00000000)
(= |a$r_buff1_thd2#2| #b00000000)
(= |a$r_buff1_thd2#3| #b10000000)
(= |a$r_buff0_thd3#2| #b00000000)
(= |a$r_buff1_thd3#2| #b00000000)
(= |a$r_buff1_thd3#3| #b10000000)
(= |a$r_buff0_thd1#4| #b00000001)
(= |x#2| #b00000000000000000000000000000000)
(= |__unbuffered_p0_EAX#4| #b00000000000000000000000000000000)
(= |__unbuffered_p0_EAX#5| #b00000000000000000000000000000001)
(= |a$w_buff0_used#14| #b00000001)
(= |a$r_buff0_thd1#6| #b00000001)
(= |a$w_buff0#7| #b00000000000000000000000000000001)
(= |a$w_buff1_used#10| #b00000000)
(= |a$r_buff1_thd1#5| #b00000000)
(= |a$w_buff1#5| #b00000000000000000000000000000000)
(= |a#6| #b00000000000000000000000000000000)
(= |a#8| #b00000000000000000000000000000001)
(= |a$w_buff0_used#18| #b00000000)
(= |a$w_buff1_used#14| #b00000000)
(= |a$r_buff0_thd1#12| #b00000001)
(= |a$r_buff1_thd1#10| #b00000000)
(= |__unbuffered_cnt#4| #b00000000000000000000000000000010)
(= |__unbuffered_cnt#6| #b00000000000000000000000000000011)
(= |pthread_create::1::this_thread_id!2@0#0| #b00000000000000000000000000000000)
(= |y#3| #b00000000000000000000000000000001)
(= |z#2| #b00000000000000000000000000000000)
(= |a$w_buff0_used#23| #b00000001)
(= |a$r_buff0_thd2#4| #b00000000)
(= |a$w_buff0#9| #b00000000000000000000000000000001)
(= |a$w_buff1_used#17| #b00000000)
(= |a$r_buff1_thd2#5| #b00000000)
(= |a$w_buff1#7| #b00000000000000000000000000000000)
(= |a#10| #b00000000000000000000000000000000)
(= |__unbuffered_cnt#8| #b00000000000000000000000000000001)
(= |pthread_create::1::this_thread_id!3@0#0| #b10000000000000000000000000000000)
(= |z#5| #b00000000000000000000000000000001)
(= |nondet_symex::nondet3| #b00000000000000000000000000000000)
(= |a#13| #b00000000000000000000000000000000)
(= |a$w_buff0_used#26| #b00000001)
(= |a$r_buff0_thd3#4| #b00000000)
(= |a$w_buff1_used#20| #b00000000)
(= |a$r_buff1_thd3#5| #b00000000)
(= |a$w_buff0#11| #b00000000000000000000000000000001)
(= |a$w_buff1#9| #b00000000000000000000000000000000)
(= |a$w_buff0_used#29| #b00000001)
(= |a$r_buff0_thd3#7| #b00000000)
(= |a$w_buff0#14| #b00000000000000000000000000000001)
(= |a$w_buff1_used#23| #b00000000)
(= |a$r_buff1_thd3#8| #b00000000)
(= |a$w_buff1#12| #b00000000000000000000000000000000)
(= |a#17| #b00000000000000000000000000000000)
(= |__unbuffered_cnt#11| #b00000000000000000000000000000000)
(= |__CPROVER_threads_exited#1$wclk$8| #b00010001)
(= |__CPROVER_threads_exited#2$rclk$8| #b11011000)
(= |__CPROVER_threads_exited#5$wclk$8| #b11111110)
(= |__CPROVER_threads_exited#7$wclk$8| #b11010110)
(= |__CPROVER_threads_exited#4$rclk$8| #b10111111)
(= |__CPROVER_threads_exited#3$wclk$8| #b11011100)
(= |__CPROVER_threads_exited#6$rclk$8| #b11001110)
(= |x#1$wclk$8| #b01110101)
(= |x#2$rclk$8| #b10010000)
(= |x#4$wclk$8| #b10010001)
(= |__unbuffered_cnt#7$wclk$8| #b11001001)
(= |__unbuffered_cnt#2$rclk$8| #b11001101)
(= |__unbuffered_cnt#10$wclk$8| #b10111110)
(= |__unbuffered_cnt#13$wclk$8| #b10011111)
(= |__unbuffered_cnt#1$wclk$8| #b00100010)
(= |__unbuffered_cnt#4$rclk$8| #b11001001)
(= |__unbuffered_cnt#8$rclk$8| #b10111110)
(= |__unbuffered_cnt#11$rclk$8| #b10011111)
(= |__unbuffered_p0_EAX#6$wclk$8| #b10010000)
(= |__unbuffered_p0_EAX#2$rclk$8| #b11100010)
(= |__unbuffered_p0_EAX#1$wclk$8| #b01000011)
(= |__unbuffered_p0_EAX#5$rclk$8| #b10010000)
(= |__unbuffered_p1_EAX#4$wclk$8| #b10010011)
(= |__unbuffered_p1_EAX#2$rclk$8| #b11100010)
(= |__unbuffered_p1_EBX#4$wclk$8| #b10010111)
(= |__unbuffered_p1_EBX#2$rclk$8| #b11100010)
(= |__unbuffered_p2_EAX#4$wclk$8| #b10011100)
(= |__unbuffered_p2_EAX#2$rclk$8| #b11100010)
(= |__unbuffered_p2_EBX#4$wclk$8| #b10011101)
(= |__unbuffered_p2_EBX#2$rclk$8| #b11100010)
(= |a#9$wclk$8| #b11001000)
(= |a#2$rclk$8| #b11100001)
(= |a#12$wclk$8| #b10111001)
(= |a#16$wclk$8| #b10011101)
(= |a#19$wclk$8| #b10011110)
(= |a#1$wclk$8| #b01001000)
(= |a#6$rclk$8| #b11001000)
(= |a#5$wclk$8| #b11100001)
(= |a#10$rclk$8| #b10111001)
(= |a#13$rclk$8| #b10011101)
(= |a#17$rclk$8| #b10011110)
(= |a$r_buff0_thd0#1$wclk$8| #b01001011)
(= |a$r_buff0_thd0#11$rclk$8| #b10000000)
(= |a$r_buff0_thd0#10$wclk$8| #b11100001)
(= |a$r_buff0_thd1#1$wclk$8| #b01001100)
(= |a$r_buff0_thd1#2$rclk$8| #b10000000)
(= |a$r_buff0_thd1#6$rclk$8| #b11001000)
(= |a$r_buff0_thd2#1$wclk$8| #b01001101)
(= |a$r_buff0_thd2#2$rclk$8| #b10000000)
(= |a$r_buff0_thd2#6$wclk$8| #b10111001)
(= |a$r_buff0_thd2#4$rclk$8| #b10111001)
(= |a$r_buff0_thd3#1$wclk$8| #b01001110)
(= |a$r_buff0_thd3#2$rclk$8| #b10000000)
(= |a$r_buff0_thd3#6$wclk$8| #b10011101)
(= |a$r_buff0_thd3#9$wclk$8| #b10011110)
(= |a$r_buff0_thd3#4$rclk$8| #b10011101)
(= |a$r_buff0_thd3#7$rclk$8| #b10011110)
(= |a$r_buff1_thd0#11$wclk$8| #b10000000)
(= |a$r_buff1_thd0#2$rclk$8| #b11100001)
(= |a$r_buff1_thd0#1$wclk$8| #b01001111)
(= |a$r_buff1_thd0#10$rclk$8| #b10000000)
(= |a$r_buff1_thd0#8$wclk$8| #b11100001)
(= |a$r_buff1_thd1#1$wclk$8| #b01010000)
(= |a$r_buff1_thd1#3$rclk$8| #b10000000)
(= |a$r_buff1_thd1#5$rclk$8| #b11001000)
(= |a$r_buff1_thd2#1$wclk$8| #b01010001)
(= |a$r_buff1_thd2#3$rclk$8| #b10000000)
(= |a$r_buff1_thd2#7$wclk$8| #b10111001)
(= |a$r_buff1_thd2#5$rclk$8| #b10111001)
(= |a$r_buff1_thd2#4$wclk$8| #b10000000)
(= |a$r_buff1_thd3#1$wclk$8| #b01010010)
(= |a$r_buff1_thd3#3$rclk$8| #b10000000)
(= |a$r_buff1_thd3#7$wclk$8| #b10011101)
(= |a$r_buff1_thd3#10$wclk$8| #b10011110)
(= |a$r_buff1_thd3#5$rclk$8| #b10011101)
(= |a$r_buff1_thd3#4$wclk$8| #b10000000)
(= |a$r_buff1_thd3#8$rclk$8| #b10011110)
(= |a$w_buff0#6$wclk$8| #b10000000)
(= |a$w_buff0#2$rclk$8| #b11100001)
(= |a$w_buff0#13$wclk$8| #b10011101)
(= |a$w_buff0#1$wclk$8| #b01100001)
(= |a$w_buff0#4$rclk$8| #b10000000)
(= |a$w_buff0#7$rclk$8| #b11001000)
(= |a$w_buff0#9$rclk$8| #b10111001)
(= |a$w_buff0#11$rclk$8| #b10011101)
(= |a$w_buff0#14$rclk$8| #b10011110)
(= |a$w_buff0_used#13$wclk$8| #b10000000)
(= |a$w_buff0_used#2$rclk$8| #b11100001)
(= |a$w_buff0_used#22$wclk$8| #b11001000)
(= |a$w_buff0_used#25$wclk$8| #b10111001)
(= |a$w_buff0_used#28$wclk$8| #b10011101)
(= |a$w_buff0_used#31$wclk$8| #b10011110)
(= |a$w_buff0_used#1$wclk$8| #b01100010)
(= |a$w_buff0_used#11$rclk$8| #b10000000)
(= |a$w_buff0_used#10$wclk$8| #b11100001)
(= |a$w_buff0_used#14$rclk$8| #b11001000)
(= |a$w_buff0_used#23$rclk$8| #b10111001)
(= |a$w_buff0_used#26$rclk$8| #b10011101)
(= |a$w_buff0_used#29$rclk$8| #b10011110)
(= |a$w_buff1#4$wclk$8| #b10000000)
(= |a$w_buff1#2$rclk$8| #b11100001)
(= |a$w_buff1#11$wclk$8| #b10011101)
(= |a$w_buff1#1$wclk$8| #b01100011)
(= |a$w_buff1#5$rclk$8| #b11001000)
(= |a$w_buff1#7$rclk$8| #b10111001)
(= |a$w_buff1#9$rclk$8| #b10011101)
(= |a$w_buff1#12$rclk$8| #b10011110)
(= |a$w_buff1_used#9$wclk$8| #b10000000)
(= |a$w_buff1_used#2$rclk$8| #b11100001)
(= |a$w_buff1_used#16$wclk$8| #b11001000)
(= |a$w_buff1_used#19$wclk$8| #b10111001)
(= |a$w_buff1_used#22$wclk$8| #b10011101)
(= |a$w_buff1_used#25$wclk$8| #b10011110)
(= |a$w_buff1_used#1$wclk$8| #b01100100)
(= |a$w_buff1_used#10$rclk$8| #b11001000)
(= |a$w_buff1_used#8$wclk$8| #b11100001)
(= |a$w_buff1_used#17$rclk$8| #b10111001)
(= |a$w_buff1_used#20$rclk$8| #b10011101)
(= |a$w_buff1_used#23$rclk$8| #b10011110)
(= |main$tmp_guard1#5| #b00000000)
(= |y#1$wclk$8| #b01110110)
(= |y#3$rclk$8| #b10010011)
(= |z#1$wclk$8| #b01111000)
(= |z#2$rclk$8| #b10010111)
(= |z#4$wclk$8| #b10011001)
(= |z#5$rclk$8| #b10011100)
(= |__unbuffered_p1_EAX#1$wclk$8| #b01000100)
(= |__unbuffered_p1_EBX#1$wclk$8| #b01000101)
(= |__unbuffered_p2_EAX#1$wclk$8| #b01000110)
(= |__unbuffered_p2_EBX#1$wclk$8| #b01000111)
(= |a$flush_delayed#1$wclk$8| #b01001001)
(= |a$flush_delayed#3$wclk$8| #b10011101)
(= |a$mem_tmp#1$wclk$8| #b01001010)
(= |a$mem_tmp#2$wclk$8| #b10011101)
(= |a$r_buff0_thd1#5$wclk$8| #b10000000)
(= |a$r_buff0_thd1#14$wclk$8| #b11001000)
(= |a$r_buff1_thd1#4$wclk$8| #b10000000)
(= |a$r_buff1_thd1#11$wclk$8| #b11001000)
(= |y#2$wclk$8| #b10010010)
(= |weak$$choice0#1$wclk$8| #b01110011)
(= |weak$$choice0#2$wclk$8| #b10011101)
(= |weak$$choice2#1$wclk$8| #b01110100)
(= |weak$$choice2#2$wclk$8| #b10011101)
(= t1$44$spwnclk$8 #b01111100)
(= t1$49$spwnclk$8 #b10010000)
(= t1$54$spwnclk$8 #b10010100)
(= |main::1::t266!0@1$wclk$8| #b00000000)
(= |main::1::t267!0@1$wclk$8| #b00000001)
(= |__CPROVER_dead_object#1$wclk$8| #b00000010)
(= |__CPROVER_deallocated#1$wclk$8| #b00000011)
(= |__CPROVER_malloc_is_new_array#1$wclk$8| #b00000100)
(= |__CPROVER_malloc_object#1$wclk$8| #b00001100)
(= |__CPROVER_malloc_size#1$wclk$8| #b00001101)
(= |__CPROVER_memory_leak#1$wclk$8| #b00001110)
(= |__CPROVER_next_thread_id#1$wclk$8| #b00001111)
(= |__CPROVER_pipe_count#1$wclk$8| #b00010000)
(= |a$read_delayed#1$wclk$8| #b01010011)
(= |a$read_delayed_var#1$wclk$8| #b01100000)
(= |main$tmp_guard0#1$wclk$8| #b01101001)
(= |main$tmp_guard1#1$wclk$8| #b01110010)
(= |main::1::t265!0@1#1$wclk$8| #b01111001)
(= |__CPROVER_next_thread_id#2$wclk$8| #b01111010)
(= |main::1::t265!0@1#2$wclk$8| #b01111011)
(= |main::1::t266!0@1#1$wclk$8| #b01111101)
(= |__CPROVER_next_thread_id#3$rclk$8| #b10001110)
(= |__CPROVER_next_thread_id#5$wclk$8| #b10001110)
(= |main::1::t266!0@1#2$wclk$8| #b10001111)
(= |main::1::t267!0@1#1$wclk$8| #b10010001)
(= |__CPROVER_next_thread_id#6$rclk$8| #b10010010)
(= |__CPROVER_next_thread_id#8$wclk$8| #b10010010)
(= |main::1::t267!0@1#2$wclk$8| #b10010011)
(= |main$tmp_guard0#2$wclk$8| #b11001101)
(= |main$tmp_guard0#3$rclk$8| #b11100000)
(= |a$r_buff0_thd0#2$rclk$8| #b11100001)
(= |main$tmp_guard1#3$rclk$8| #b11100010)
(= |main$tmp_guard1#4$wclk$8| #b11100010)
(= |main$tmp_guard1#5$rclk$8| #b11100100)
(= |main$tmp_guard1#6$rclk$8| #b11100101)
(= array_of.0 @fun_9)
(= |__CPROVER_threads_exited#2| @fun_7)
(= |__CPROVER_threads_exited#4| @fun_9)
(= |__CPROVER_threads_exited#6| @fun_9)
(function @fun_9
 (type (Array (_ BitVec 32) (_ BitVec 1)))
 (= (@fun_9 #b10000000000000000000000000000000) #b0)
 (default #b1))
(function @fun_7
 (type (Array (_ BitVec 32) (_ BitVec 1)))
 (default #b1))

real	0m0.028s
user	0m0.018s
sys	0m0.010s
State: AC Run_time: 0.029873371124267578